
===== New CPLEX run =====
Instance: /home/yorig/tuner/mpils-tests/instances/miplib/medium-1/momentum1.mps
Config: /scratch/yorig/mpils-results-grid-ticks-10000/medium-1/16proc/seed-5/6_momentum1_seed-5_20260425_215516/expansion/config_param_CPXPARAM_Advance_2_iter_3.prm
========================

Selected objective sense:  MINIMIZE
Selected objective  name:  MINIMIZE
Selected RHS        name:  rhs
Selected bound      name:  bnd
Version identifier: 22.1.2.0 | 2024-11-26 | 0edbb82fd
CPXPARAM_Advance                                 2
CPXPARAM_Threads                                 8
CPXPARAM_Parallel                                1
CPXPARAM_MIP_Cuts_Cliques                        -1
CPXPARAM_MIP_Cuts_FlowCovers                     2
CPXPARAM_MIP_Cuts_Implied                        1
CPXPARAM_MIP_Limits_GomoryCand                   25
CPXPARAM_MIP_Cuts_Gomory                         1
CPXPARAM_MIP_Cuts_PathCut                        1
CPXPARAM_MIP_Cuts_Disjunctive                    -1
CPXPARAM_Emphasis_MIP                            4
CPXPARAM_MIP_Strategy_HeuristicFreq              100
CPXPARAM_DetTimeLimit                            10000
Tried aggregator 3 times.
MIP Presolve eliminated 30810 rows and 1362 columns.
MIP Presolve modified 22293 coefficients.
Aggregator did 232 substitutions.
Reduced MIP has 11638 rows, 3580 columns, and 46688 nonzeros.
Reduced MIP has 1625 binaries, 0 generals, 0 SOSs, and 0 indicators.
Presolve time = 0.10 sec. (139.58 ticks)
Found incumbent of value 533875.101733 after 0.12 sec. (154.72 ticks)
Probing fixed 392 vars, tightened 1078 bounds.
Probing changed sense of 113 constraints.
Probing time = 0.08 sec. (90.30 ticks)
Cover probing fixed 0 vars, tightened 267 bounds.
Tried aggregator 2 times.
MIP Presolve eliminated 3295 rows and 847 columns.
MIP Presolve modified 7082 coefficients.
Aggregator did 11 substitutions.
Reduced MIP has 8332 rows, 2722 columns, and 31418 nonzeros.
Reduced MIP has 1168 binaries, 0 generals, 0 SOSs, and 0 indicators.
Presolve time = 0.04 sec. (44.43 ticks)
Probing fixed 1 vars, tightened 256 bounds.
Probing time = 0.05 sec. (44.20 ticks)
Cover probing fixed 0 vars, tightened 190 bounds.
Tried aggregator 1 time.
Detecting symmetries...
MIP Presolve eliminated 26 rows and 2 columns.
MIP Presolve modified 5059 coefficients.
Reduced MIP has 8306 rows, 2720 columns, and 31355 nonzeros.
Reduced MIP has 1167 binaries, 0 generals, 0 SOSs, and 0 indicators.
Presolve time = 0.02 sec. (22.06 ticks)
Probing fixed 0 vars, tightened 90 bounds.
Probing time = 0.04 sec. (40.55 ticks)
Cover probing fixed 0 vars, tightened 69 bounds.
Clique table members: 18692.
MIP emphasis: hidden feasible solutions.
MIP search method: dynamic search.
Parallel mode: deterministic, using up to 8 threads.
Root relaxation solution time = 0.11 sec. (144.31 ticks)

        Nodes                                         Cuts/
   Node  Left     Objective  IInf  Best Integer    Best Bound    ItCnt     Gap

*     0+    0                       533875.1017    44880.8652            91.59%
*     0+    0                       533847.9795    44880.8652            91.59%
*     0+    0                       333826.8649    44880.8652            86.56%
*     0+    0                       333809.0666    44880.8652            86.55%
      0     0    79213.0345   216   333809.0666    79213.0345     1531   76.27%
      0     0    96254.6467   297   333809.0666     Cuts: 174     2064   71.16%
      0     0    96260.5560   272   333809.0666      Cuts: 81     2379   71.16%
      0     0    96261.7287   286   333809.0666      Cuts: 29     2510   71.16%
      0     0    96272.4511   273   333809.0666      Cuts: 10     2613   71.16%
      0     0    96274.5929   256   333809.0666      Cuts: 25     2668   71.16%
Detecting symmetries...
      0     0    96276.5681   258   333809.0666      Cuts: 28     2720   71.16%
*     0+    0                       320985.2647    96276.5681            70.01%
Detecting symmetries...
      0     2    96276.5681   258   320985.2647    96276.5681     2720   70.01%
Elapsed time = 3.22 sec. (5165.21 ticks, tree = 0.02 MB, solutions = 5)
     28    20    96332.0935   222   320985.2647    96287.5008     4984   70.00%
     48    16   101499.5539   217   320985.2647    96287.5008     4984   70.00%
     67    60    96356.3607   281   320985.2647    96287.5008    12482   70.00%
     77    69    96371.1105   271   320985.2647    96287.5008    15056   70.00%
    104    91   102749.7141   167   320985.2647    96287.5008    19068   70.00%
    126    92   105972.8366   255   320985.2647    96287.5008    20700   70.00%
    191   140   115527.1863   147   320985.2647    96287.5008    28727   70.00%
    251   152   110985.8250   176   320985.2647    96287.5008    34669   70.00%
*   302   225      integral     0   122092.0008    96287.5008    37857   21.14%
*   442   348      integral     0   122060.0607    96290.3401    51900   21.11%
    563   435    99569.9162   123   122060.0607    96290.3401    63101   21.11%
Elapsed time = 5.18 sec. (8203.46 ticks, tree = 1.32 MB, solutions = 7)
    760   571        cutoff         122060.0607    96294.9696    81436   21.11%
*   854+  523                       109194.8022    96297.4430            11.81%
*   863+  523                       109179.1051    96297.4430            11.80%

Implied bound cuts applied:  2
Flow cuts applied:  119
Flow path cuts applied:  0
Zero-half cuts applied:  41
Gomory fractional cuts applied:  4

Root node processing (before b&c):
  Real time             =    3.19 sec. (5133.51 ticks)
Parallel b&c, 8 threads:
  Real time             =    3.24 sec. (4874.62 ticks)
  Sync time (average)   =    0.40 sec.
  Wait time (average)   =    0.00 sec.
                          ------------
Total (root+branch&cut) =    6.43 sec. (10008.14 ticks)
Gap: 11.8%
Upper bound: 109179
Lower bound: 96297.4
End of CPLEX run. Time: 6.43575 seconds

===== New CPLEX run =====
Instance: /home/yorig/tuner/mpils-tests/instances/miplib/medium-1/momentum1.mps
Config: /scratch/yorig/mpils-results-grid-ticks-10000/medium-1/16proc/seed-5/6_momentum1_seed-5_20260425_215516/expansion/config_param_CPXPARAM_MIP_Limits_AggForCut_0_iter_3.prm
========================

Selected objective sense:  MINIMIZE
Selected objective  name:  MINIMIZE
Selected RHS        name:  rhs
Selected bound      name:  bnd
Version identifier: 22.1.2.0 | 2024-11-26 | 0edbb82fd
CPXPARAM_Threads                                 8
CPXPARAM_Parallel                                1
CPXPARAM_MIP_Cuts_Cliques                        -1
CPXPARAM_MIP_Cuts_FlowCovers                     2
CPXPARAM_MIP_Cuts_Implied                        1
CPXPARAM_MIP_Limits_GomoryCand                   25
CPXPARAM_MIP_Cuts_Gomory                         1
CPXPARAM_MIP_Cuts_PathCut                        1
CPXPARAM_MIP_Cuts_Disjunctive                    -1
CPXPARAM_MIP_Limits_AggForCut                    0
CPXPARAM_Emphasis_MIP                            4
CPXPARAM_MIP_Strategy_HeuristicFreq              100
CPXPARAM_DetTimeLimit                            10000
Tried aggregator 3 times.
MIP Presolve eliminated 30810 rows and 1362 columns.
MIP Presolve modified 22293 coefficients.
Aggregator did 232 substitutions.
Reduced MIP has 11638 rows, 3580 columns, and 46688 nonzeros.
Reduced MIP has 1625 binaries, 0 generals, 0 SOSs, and 0 indicators.
Presolve time = 0.10 sec. (139.58 ticks)
Found incumbent of value 533875.101733 after 0.11 sec. (154.72 ticks)
Probing fixed 392 vars, tightened 1078 bounds.
Probing changed sense of 113 constraints.
Probing time = 0.08 sec. (90.30 ticks)
Cover probing fixed 0 vars, tightened 267 bounds.
Tried aggregator 2 times.
MIP Presolve eliminated 3295 rows and 847 columns.
MIP Presolve modified 7082 coefficients.
Aggregator did 11 substitutions.
Reduced MIP has 8332 rows, 2722 columns, and 31418 nonzeros.
Reduced MIP has 1168 binaries, 0 generals, 0 SOSs, and 0 indicators.
Presolve time = 0.04 sec. (44.43 ticks)
Probing fixed 1 vars, tightened 256 bounds.
Probing time = 0.04 sec. (44.20 ticks)
Cover probing fixed 0 vars, tightened 190 bounds.
Tried aggregator 1 time.
Detecting symmetries...
MIP Presolve eliminated 26 rows and 2 columns.
MIP Presolve modified 5059 coefficients.
Reduced MIP has 8306 rows, 2720 columns, and 31355 nonzeros.
Reduced MIP has 1167 binaries, 0 generals, 0 SOSs, and 0 indicators.
Presolve time = 0.02 sec. (22.06 ticks)
Probing fixed 0 vars, tightened 90 bounds.
Probing time = 0.04 sec. (40.55 ticks)
Cover probing fixed 0 vars, tightened 69 bounds.
Clique table members: 18692.
MIP emphasis: hidden feasible solutions.
MIP search method: dynamic search.
Parallel mode: deterministic, using up to 8 threads.
Root relaxation solution time = 0.11 sec. (144.31 ticks)

        Nodes                                         Cuts/
   Node  Left     Objective  IInf  Best Integer    Best Bound    ItCnt     Gap

*     0+    0                       533875.1017    44880.8652            91.59%
*     0+    0                       533847.9795    44880.8652            91.59%
*     0+    0                       333826.8649    44880.8652            86.56%
*     0+    0                       333809.0666    44880.8652            86.55%
      0     0    79213.0345   216   333809.0666    79213.0345     1531   76.27%
      0     0    96253.3510   283   333809.0666      Cuts: 97     2003   71.17%
      0     0    96254.7636   245   333809.0666      Cuts: 31     2106   71.16%
      0     0    96254.7775   246   333809.0666   ZeroHalf: 2     2112   71.16%
*     0+    0                       333809.0571    96254.7775            71.16%
      0     0  -1.00000e+75     0   333809.0571    96254.7775     2112   71.16%
      0     0    96254.8020   244   333809.0571   ZeroHalf: 4     2121   71.16%
*     0+    0                       320985.2647    96254.8020            70.01%
Detecting symmetries...
      0     2    96254.8020   244   320985.2647    96254.8020     2121   70.01%
Elapsed time = 2.75 sec. (4389.46 ticks, tree = 0.02 MB, solutions = 6)
     32    31    96305.0398   220   320985.2647    96266.0347     5713   70.01%
     61    53   102676.0538   207   320985.2647    96266.0347     8639   70.01%
     81    73   102721.9309   179   320985.2647    96266.0347    14410   70.01%
    134   103   109138.2325    99   320985.2647    96266.0347    18075   70.01%
    201   167   109125.5361   174   320985.2647    96266.0347    26518   70.01%
    268   235   118825.2296    29   320985.2647    96266.0347    30137   70.01%
    291   253   115697.6631   138   320985.2647    96266.0347    34009   70.01%
    332   293   109126.5434   188   320985.2647    96266.0347    39019   70.01%
    356   313   115714.3136   162   320985.2647    96266.0347    44522   70.01%
*   427+  346                       128482.1608    96266.0347            25.07%
*   427+  346                       128468.2475    96266.0347            25.07%
    474   383    96322.4836   208   128468.2475    96285.7140    65820   25.05%
Elapsed time = 4.87 sec. (7596.68 ticks, tree = 0.91 MB, solutions = 8)
    751   443        cutoff         128468.2475    96285.7140    77585   25.05%
*   868+  458                       122025.5219    96285.7140            21.09%
*   899+  419                       122012.3900    96285.7140            21.09%
*   899+  419                       122012.3285    96285.7140            21.09%
*   899+  419                       122012.3259    96285.7140            21.09%
*   899+  419                       122011.6323    96285.7140            21.08%
*   899+  419                       122011.6250    96285.7140            21.08%
*   899+  419                       122011.4367    96285.7140            21.08%
*   899+  458                       115622.0155    96285.7140            16.72%
    899   421    96391.7167   170   115622.0155    96285.7140    71886   16.72%

Implied bound cuts applied:  3
Flow cuts applied:  0
Flow path cuts applied:  0
Zero-half cuts applied:  24
Gomory fractional cuts applied:  4

Root node processing (before b&c):
  Real time             =    2.73 sec. (4368.67 ticks)
Parallel b&c, 8 threads:
  Real time             =    3.93 sec. (5642.57 ticks)
  Sync time (average)   =    0.59 sec.
  Wait time (average)   =    0.00 sec.
                          ------------
Total (root+branch&cut) =    6.66 sec. (10011.24 ticks)
Gap: 16.72%
Upper bound: 115622
Lower bound: 96285.7
End of CPLEX run. Time: 6.66552 seconds
